; Benchmark for LTL-sketching problem
(set-logic QF_UF)
(set-info :status unknown)
(declare-fun z_2_0_0 () Bool)
(declare-fun z_1_0_0 () Bool)
(declare-fun z_0_0_0 () Bool)
(declare-fun z_2_0_1 () Bool)
(declare-fun z_1_0_1 () Bool)
(declare-fun z_0_0_1 () Bool)
(declare-fun z_2_0_2 () Bool)
(declare-fun z_1_0_2 () Bool)
(declare-fun z_0_0_2 () Bool)
(declare-fun z_2_0_3 () Bool)
(declare-fun z_1_0_3 () Bool)
(declare-fun z_0_0_3 () Bool)
(declare-fun z_2_0_4 () Bool)
(declare-fun z_1_0_4 () Bool)
(declare-fun z_0_0_4 () Bool)
(declare-fun z_2_0_5 () Bool)
(declare-fun z_1_0_5 () Bool)
(declare-fun z_0_0_5 () Bool)
(declare-fun z_2_0_6 () Bool)
(declare-fun z_1_0_6 () Bool)
(declare-fun z_0_0_6 () Bool)
(declare-fun z_2_1_0 () Bool)
(declare-fun z_1_1_0 () Bool)
(declare-fun z_0_1_0 () Bool)
(declare-fun z_2_1_1 () Bool)
(declare-fun z_1_1_1 () Bool)
(declare-fun z_0_1_1 () Bool)
(declare-fun z_2_1_2 () Bool)
(declare-fun z_1_1_2 () Bool)
(declare-fun z_0_1_2 () Bool)
(declare-fun z_2_1_3 () Bool)
(declare-fun z_1_1_3 () Bool)
(declare-fun z_0_1_3 () Bool)
(declare-fun z_2_1_4 () Bool)
(declare-fun z_1_1_4 () Bool)
(declare-fun z_0_1_4 () Bool)
(declare-fun z_2_1_5 () Bool)
(declare-fun z_1_1_5 () Bool)
(declare-fun z_0_1_5 () Bool)
(declare-fun z_2_2_0 () Bool)
(declare-fun z_1_2_0 () Bool)
(declare-fun z_0_2_0 () Bool)
(declare-fun z_2_2_1 () Bool)
(declare-fun z_1_2_1 () Bool)
(declare-fun z_0_2_1 () Bool)
(declare-fun z_2_2_2 () Bool)
(declare-fun z_1_2_2 () Bool)
(declare-fun z_0_2_2 () Bool)
(declare-fun z_2_2_3 () Bool)
(declare-fun z_1_2_3 () Bool)
(declare-fun z_0_2_3 () Bool)
(declare-fun z_2_2_4 () Bool)
(declare-fun z_1_2_4 () Bool)
(declare-fun z_0_2_4 () Bool)
(declare-fun z_2_2_5 () Bool)
(declare-fun z_1_2_5 () Bool)
(declare-fun z_0_2_5 () Bool)
(declare-fun z_2_3_0 () Bool)
(declare-fun z_1_3_0 () Bool)
(declare-fun z_0_3_0 () Bool)
(declare-fun z_2_3_1 () Bool)
(declare-fun z_1_3_1 () Bool)
(declare-fun z_0_3_1 () Bool)
(declare-fun z_2_3_2 () Bool)
(declare-fun z_1_3_2 () Bool)
(declare-fun z_0_3_2 () Bool)
(declare-fun z_2_3_3 () Bool)
(declare-fun z_1_3_3 () Bool)
(declare-fun z_0_3_3 () Bool)
(declare-fun z_2_4_0 () Bool)
(declare-fun z_1_4_0 () Bool)
(declare-fun z_0_4_0 () Bool)
(declare-fun z_2_4_1 () Bool)
(declare-fun z_1_4_1 () Bool)
(declare-fun z_0_4_1 () Bool)
(declare-fun z_2_4_2 () Bool)
(declare-fun z_1_4_2 () Bool)
(declare-fun z_0_4_2 () Bool)
(declare-fun z_2_5_0 () Bool)
(declare-fun z_1_5_0 () Bool)
(declare-fun z_0_5_0 () Bool)
(declare-fun z_2_6_0 () Bool)
(declare-fun z_1_6_0 () Bool)
(declare-fun z_0_6_0 () Bool)
(declare-fun z_2_6_1 () Bool)
(declare-fun z_1_6_1 () Bool)
(declare-fun z_0_6_1 () Bool)
(declare-fun z_2_6_2 () Bool)
(declare-fun z_1_6_2 () Bool)
(declare-fun z_0_6_2 () Bool)
(declare-fun z_2_6_3 () Bool)
(declare-fun z_1_6_3 () Bool)
(declare-fun z_0_6_3 () Bool)
(declare-fun z_2_6_4 () Bool)
(declare-fun z_1_6_4 () Bool)
(declare-fun z_0_6_4 () Bool)
(declare-fun z_2_7_0 () Bool)
(declare-fun z_1_7_0 () Bool)
(declare-fun z_0_7_0 () Bool)
(declare-fun z_2_7_1 () Bool)
(declare-fun z_1_7_1 () Bool)
(declare-fun z_0_7_1 () Bool)
(declare-fun z_2_7_2 () Bool)
(declare-fun z_1_7_2 () Bool)
(declare-fun z_0_7_2 () Bool)
(declare-fun z_2_7_3 () Bool)
(declare-fun z_1_7_3 () Bool)
(declare-fun z_0_7_3 () Bool)
(declare-fun z_2_8_0 () Bool)
(declare-fun z_1_8_0 () Bool)
(declare-fun z_0_8_0 () Bool)
(declare-fun z_2_8_1 () Bool)
(declare-fun z_1_8_1 () Bool)
(declare-fun z_0_8_1 () Bool)
(declare-fun z_2_8_2 () Bool)
(declare-fun z_1_8_2 () Bool)
(declare-fun z_0_8_2 () Bool)
(declare-fun z_2_8_3 () Bool)
(declare-fun z_1_8_3 () Bool)
(declare-fun z_0_8_3 () Bool)
(declare-fun z_2_8_4 () Bool)
(declare-fun z_1_8_4 () Bool)
(declare-fun z_0_8_4 () Bool)
(declare-fun z_2_8_5 () Bool)
(declare-fun z_1_8_5 () Bool)
(declare-fun z_0_8_5 () Bool)
(declare-fun z_2_9_0 () Bool)
(declare-fun z_1_9_0 () Bool)
(declare-fun z_0_9_0 () Bool)
(declare-fun z_2_9_1 () Bool)
(declare-fun z_1_9_1 () Bool)
(declare-fun z_0_9_1 () Bool)
(declare-fun z_2_9_2 () Bool)
(declare-fun z_1_9_2 () Bool)
(declare-fun z_0_9_2 () Bool)
(declare-fun z_2_9_3 () Bool)
(declare-fun z_1_9_3 () Bool)
(declare-fun z_0_9_3 () Bool)
(declare-fun z_2_9_4 () Bool)
(declare-fun z_1_9_4 () Bool)
(declare-fun z_0_9_4 () Bool)
(declare-fun z_2_10_0 () Bool)
(declare-fun z_1_10_0 () Bool)
(declare-fun z_0_10_0 () Bool)
(declare-fun z_2_10_1 () Bool)
(declare-fun z_1_10_1 () Bool)
(declare-fun z_0_10_1 () Bool)
(declare-fun z_2_10_2 () Bool)
(declare-fun z_1_10_2 () Bool)
(declare-fun z_0_10_2 () Bool)
(declare-fun z_2_10_3 () Bool)
(declare-fun z_1_10_3 () Bool)
(declare-fun z_0_10_3 () Bool)
(declare-fun z_2_10_4 () Bool)
(declare-fun z_1_10_4 () Bool)
(declare-fun z_0_10_4 () Bool)
(declare-fun z_2_10_5 () Bool)
(declare-fun z_1_10_5 () Bool)
(declare-fun z_0_10_5 () Bool)
(declare-fun z_2_11_0 () Bool)
(declare-fun z_1_11_0 () Bool)
(declare-fun z_0_11_0 () Bool)
(declare-fun z_2_11_1 () Bool)
(declare-fun z_1_11_1 () Bool)
(declare-fun z_0_11_1 () Bool)
(declare-fun z_2_11_2 () Bool)
(declare-fun z_1_11_2 () Bool)
(declare-fun z_0_11_2 () Bool)
(declare-fun z_2_11_3 () Bool)
(declare-fun z_1_11_3 () Bool)
(declare-fun z_0_11_3 () Bool)
(declare-fun z_2_11_4 () Bool)
(declare-fun z_1_11_4 () Bool)
(declare-fun z_0_11_4 () Bool)
(declare-fun z_2_11_5 () Bool)
(declare-fun z_1_11_5 () Bool)
(declare-fun z_0_11_5 () Bool)
(declare-fun z_2_12_0 () Bool)
(declare-fun z_1_12_0 () Bool)
(declare-fun z_0_12_0 () Bool)
(declare-fun z_2_12_1 () Bool)
(declare-fun z_1_12_1 () Bool)
(declare-fun z_0_12_1 () Bool)
(declare-fun z_2_12_2 () Bool)
(declare-fun z_1_12_2 () Bool)
(declare-fun z_0_12_2 () Bool)
(declare-fun z_2_12_3 () Bool)
(declare-fun z_1_12_3 () Bool)
(declare-fun z_0_12_3 () Bool)
(declare-fun z_2_12_4 () Bool)
(declare-fun z_1_12_4 () Bool)
(declare-fun z_0_12_4 () Bool)
(declare-fun z_2_12_5 () Bool)
(declare-fun z_1_12_5 () Bool)
(declare-fun z_0_12_5 () Bool)
(declare-fun z_2_12_6 () Bool)
(declare-fun z_1_12_6 () Bool)
(declare-fun z_0_12_6 () Bool)
(declare-fun z_2_13_0 () Bool)
(declare-fun z_1_13_0 () Bool)
(declare-fun z_0_13_0 () Bool)
(declare-fun z_2_13_1 () Bool)
(declare-fun z_1_13_1 () Bool)
(declare-fun z_0_13_1 () Bool)
(declare-fun z_2_13_2 () Bool)
(declare-fun z_1_13_2 () Bool)
(declare-fun z_0_13_2 () Bool)
(declare-fun z_2_13_3 () Bool)
(declare-fun z_1_13_3 () Bool)
(declare-fun z_0_13_3 () Bool)
(declare-fun z_2_13_4 () Bool)
(declare-fun z_1_13_4 () Bool)
(declare-fun z_0_13_4 () Bool)
(declare-fun z_2_13_5 () Bool)
(declare-fun z_1_13_5 () Bool)
(declare-fun z_0_13_5 () Bool)
(declare-fun z_2_13_6 () Bool)
(declare-fun z_1_13_6 () Bool)
(declare-fun z_0_13_6 () Bool)
(declare-fun z_2_14_0 () Bool)
(declare-fun z_1_14_0 () Bool)
(declare-fun z_0_14_0 () Bool)
(declare-fun z_2_14_1 () Bool)
(declare-fun z_1_14_1 () Bool)
(declare-fun z_0_14_1 () Bool)
(declare-fun z_2_14_2 () Bool)
(declare-fun z_1_14_2 () Bool)
(declare-fun z_0_14_2 () Bool)
(declare-fun z_2_14_3 () Bool)
(declare-fun z_1_14_3 () Bool)
(declare-fun z_0_14_3 () Bool)
(declare-fun z_2_15_0 () Bool)
(declare-fun z_1_15_0 () Bool)
(declare-fun z_0_15_0 () Bool)
(declare-fun z_2_15_1 () Bool)
(declare-fun z_1_15_1 () Bool)
(declare-fun z_0_15_1 () Bool)
(declare-fun z_2_15_2 () Bool)
(declare-fun z_1_15_2 () Bool)
(declare-fun z_0_15_2 () Bool)
(declare-fun z_2_15_3 () Bool)
(declare-fun z_1_15_3 () Bool)
(declare-fun z_0_15_3 () Bool)
(declare-fun z_2_15_4 () Bool)
(declare-fun z_1_15_4 () Bool)
(declare-fun z_0_15_4 () Bool)
(declare-fun z_2_15_5 () Bool)
(declare-fun z_1_15_5 () Bool)
(declare-fun z_0_15_5 () Bool)
(declare-fun z_2_16_0 () Bool)
(declare-fun z_1_16_0 () Bool)
(declare-fun z_0_16_0 () Bool)
(declare-fun z_2_16_1 () Bool)
(declare-fun z_1_16_1 () Bool)
(declare-fun z_0_16_1 () Bool)
(declare-fun z_2_16_2 () Bool)
(declare-fun z_1_16_2 () Bool)
(declare-fun z_0_16_2 () Bool)
(declare-fun z_2_16_3 () Bool)
(declare-fun z_1_16_3 () Bool)
(declare-fun z_0_16_3 () Bool)
(declare-fun z_2_16_4 () Bool)
(declare-fun z_1_16_4 () Bool)
(declare-fun z_0_16_4 () Bool)
(declare-fun z_2_16_5 () Bool)
(declare-fun z_1_16_5 () Bool)
(declare-fun z_0_16_5 () Bool)
(declare-fun z_2_16_6 () Bool)
(declare-fun z_1_16_6 () Bool)
(declare-fun z_0_16_6 () Bool)
(declare-fun z_2_17_0 () Bool)
(declare-fun z_1_17_0 () Bool)
(declare-fun z_0_17_0 () Bool)
(declare-fun z_2_17_1 () Bool)
(declare-fun z_1_17_1 () Bool)
(declare-fun z_0_17_1 () Bool)
(declare-fun z_2_17_2 () Bool)
(declare-fun z_1_17_2 () Bool)
(declare-fun z_0_17_2 () Bool)
(declare-fun z_2_17_3 () Bool)
(declare-fun z_1_17_3 () Bool)
(declare-fun z_0_17_3 () Bool)
(declare-fun z_2_18_0 () Bool)
(declare-fun z_1_18_0 () Bool)
(declare-fun z_0_18_0 () Bool)
(declare-fun z_2_18_1 () Bool)
(declare-fun z_1_18_1 () Bool)
(declare-fun z_0_18_1 () Bool)
(declare-fun z_2_18_2 () Bool)
(declare-fun z_1_18_2 () Bool)
(declare-fun z_0_18_2 () Bool)
(declare-fun z_2_18_3 () Bool)
(declare-fun z_1_18_3 () Bool)
(declare-fun z_0_18_3 () Bool)
(declare-fun z_2_18_4 () Bool)
(declare-fun z_1_18_4 () Bool)
(declare-fun z_0_18_4 () Bool)
(declare-fun z_2_18_5 () Bool)
(declare-fun z_1_18_5 () Bool)
(declare-fun z_0_18_5 () Bool)
(declare-fun z_2_19_0 () Bool)
(declare-fun z_1_19_0 () Bool)
(declare-fun z_0_19_0 () Bool)
(declare-fun z_2_19_1 () Bool)
(declare-fun z_1_19_1 () Bool)
(declare-fun z_0_19_1 () Bool)
(declare-fun z_2_19_2 () Bool)
(declare-fun z_1_19_2 () Bool)
(declare-fun z_0_19_2 () Bool)
(declare-fun z_2_19_3 () Bool)
(declare-fun z_1_19_3 () Bool)
(declare-fun z_0_19_3 () Bool)
(declare-fun z_2_19_4 () Bool)
(declare-fun z_1_19_4 () Bool)
(declare-fun z_0_19_4 () Bool)
(declare-fun z_2_19_5 () Bool)
(declare-fun z_1_19_5 () Bool)
(declare-fun z_0_19_5 () Bool)
(declare-fun z_2_19_6 () Bool)
(declare-fun z_1_19_6 () Bool)
(declare-fun z_0_19_6 () Bool)
(declare-fun z_3_0_0 () Bool)
(declare-fun z_4_0_0 () Bool)
(declare-fun z_3_0_1 () Bool)
(declare-fun z_4_0_1 () Bool)
(declare-fun z_3_0_2 () Bool)
(declare-fun z_4_0_2 () Bool)
(declare-fun z_3_0_3 () Bool)
(declare-fun z_4_0_3 () Bool)
(declare-fun z_3_0_4 () Bool)
(declare-fun z_4_0_4 () Bool)
(declare-fun z_3_0_5 () Bool)
(declare-fun z_4_0_5 () Bool)
(declare-fun z_4_0_6 () Bool)
(declare-fun z_3_0_6 () Bool)
(declare-fun z_3_1_0 () Bool)
(declare-fun z_4_1_0 () Bool)
(declare-fun z_3_1_1 () Bool)
(declare-fun z_4_1_1 () Bool)
(declare-fun z_3_1_2 () Bool)
(declare-fun z_4_1_2 () Bool)
(declare-fun z_3_1_3 () Bool)
(declare-fun z_4_1_3 () Bool)
(declare-fun z_3_1_4 () Bool)
(declare-fun z_4_1_4 () Bool)
(declare-fun z_4_1_5 () Bool)
(declare-fun z_3_1_5 () Bool)
(declare-fun z_3_2_0 () Bool)
(declare-fun z_4_2_0 () Bool)
(declare-fun z_3_2_1 () Bool)
(declare-fun z_4_2_1 () Bool)
(declare-fun z_3_2_2 () Bool)
(declare-fun z_4_2_2 () Bool)
(declare-fun z_3_2_3 () Bool)
(declare-fun z_4_2_3 () Bool)
(declare-fun z_3_2_4 () Bool)
(declare-fun z_4_2_4 () Bool)
(declare-fun z_4_2_5 () Bool)
(declare-fun z_3_2_5 () Bool)
(declare-fun z_3_3_0 () Bool)
(declare-fun z_4_3_0 () Bool)
(declare-fun z_3_3_1 () Bool)
(declare-fun z_4_3_1 () Bool)
(declare-fun z_3_3_2 () Bool)
(declare-fun z_4_3_2 () Bool)
(declare-fun z_4_3_3 () Bool)
(declare-fun z_3_3_3 () Bool)
(declare-fun z_3_4_0 () Bool)
(declare-fun z_4_4_0 () Bool)
(declare-fun z_3_4_1 () Bool)
(declare-fun z_4_4_1 () Bool)
(declare-fun z_4_4_2 () Bool)
(declare-fun z_4_5_0 () Bool)
(declare-fun z_3_6_0 () Bool)
(declare-fun z_4_6_0 () Bool)
(declare-fun z_3_6_1 () Bool)
(declare-fun z_4_6_1 () Bool)
(declare-fun z_3_6_2 () Bool)
(declare-fun z_4_6_2 () Bool)
(declare-fun z_3_6_3 () Bool)
(declare-fun z_4_6_3 () Bool)
(declare-fun z_4_6_4 () Bool)
(declare-fun z_3_6_4 () Bool)
(declare-fun z_3_7_0 () Bool)
(declare-fun z_4_7_0 () Bool)
(declare-fun z_3_7_1 () Bool)
(declare-fun z_4_7_1 () Bool)
(declare-fun z_3_7_2 () Bool)
(declare-fun z_4_7_2 () Bool)
(declare-fun z_4_7_3 () Bool)
(declare-fun z_3_8_0 () Bool)
(declare-fun z_4_8_0 () Bool)
(declare-fun z_3_8_1 () Bool)
(declare-fun z_4_8_1 () Bool)
(declare-fun z_3_8_2 () Bool)
(declare-fun z_4_8_2 () Bool)
(declare-fun z_3_8_3 () Bool)
(declare-fun z_4_8_3 () Bool)
(declare-fun z_3_8_4 () Bool)
(declare-fun z_4_8_4 () Bool)
(declare-fun z_4_8_5 () Bool)
(declare-fun z_3_8_5 () Bool)
(declare-fun z_3_9_0 () Bool)
(declare-fun z_4_9_0 () Bool)
(declare-fun z_3_9_1 () Bool)
(declare-fun z_4_9_1 () Bool)
(declare-fun z_3_9_2 () Bool)
(declare-fun z_4_9_2 () Bool)
(declare-fun z_3_9_3 () Bool)
(declare-fun z_4_9_3 () Bool)
(declare-fun z_4_9_4 () Bool)
(declare-fun z_3_9_4 () Bool)
(declare-fun z_3_10_0 () Bool)
(declare-fun z_4_10_0 () Bool)
(declare-fun z_3_10_1 () Bool)
(declare-fun z_4_10_1 () Bool)
(declare-fun z_3_10_2 () Bool)
(declare-fun z_4_10_2 () Bool)
(declare-fun z_3_10_3 () Bool)
(declare-fun z_4_10_3 () Bool)
(declare-fun z_3_10_4 () Bool)
(declare-fun z_4_10_4 () Bool)
(declare-fun z_4_10_5 () Bool)
(declare-fun z_3_10_5 () Bool)
(declare-fun z_3_11_0 () Bool)
(declare-fun z_4_11_0 () Bool)
(declare-fun z_3_11_1 () Bool)
(declare-fun z_4_11_1 () Bool)
(declare-fun z_3_11_2 () Bool)
(declare-fun z_4_11_2 () Bool)
(declare-fun z_3_11_3 () Bool)
(declare-fun z_4_11_3 () Bool)
(declare-fun z_3_11_4 () Bool)
(declare-fun z_4_11_4 () Bool)
(declare-fun z_4_11_5 () Bool)
(declare-fun z_3_11_5 () Bool)
(declare-fun z_3_12_0 () Bool)
(declare-fun z_4_12_0 () Bool)
(declare-fun z_3_12_1 () Bool)
(declare-fun z_4_12_1 () Bool)
(declare-fun z_3_12_2 () Bool)
(declare-fun z_4_12_2 () Bool)
(declare-fun z_3_12_3 () Bool)
(declare-fun z_4_12_3 () Bool)
(declare-fun z_3_12_4 () Bool)
(declare-fun z_4_12_4 () Bool)
(declare-fun z_3_12_5 () Bool)
(declare-fun z_4_12_5 () Bool)
(declare-fun z_4_12_6 () Bool)
(declare-fun z_3_12_6 () Bool)
(declare-fun z_3_13_0 () Bool)
(declare-fun z_4_13_0 () Bool)
(declare-fun z_3_13_1 () Bool)
(declare-fun z_4_13_1 () Bool)
(declare-fun z_3_13_2 () Bool)
(declare-fun z_4_13_2 () Bool)
(declare-fun z_3_13_3 () Bool)
(declare-fun z_4_13_3 () Bool)
(declare-fun z_3_13_4 () Bool)
(declare-fun z_4_13_4 () Bool)
(declare-fun z_3_13_5 () Bool)
(declare-fun z_4_13_5 () Bool)
(declare-fun z_4_13_6 () Bool)
(declare-fun z_3_13_6 () Bool)
(declare-fun z_3_14_0 () Bool)
(declare-fun z_4_14_0 () Bool)
(declare-fun z_3_14_1 () Bool)
(declare-fun z_4_14_1 () Bool)
(declare-fun z_3_14_2 () Bool)
(declare-fun z_4_14_2 () Bool)
(declare-fun z_4_14_3 () Bool)
(declare-fun z_3_14_3 () Bool)
(declare-fun z_3_15_0 () Bool)
(declare-fun z_4_15_0 () Bool)
(declare-fun z_3_15_1 () Bool)
(declare-fun z_4_15_1 () Bool)
(declare-fun z_3_15_2 () Bool)
(declare-fun z_4_15_2 () Bool)
(declare-fun z_3_15_3 () Bool)
(declare-fun z_4_15_3 () Bool)
(declare-fun z_3_15_4 () Bool)
(declare-fun z_4_15_4 () Bool)
(declare-fun z_4_15_5 () Bool)
(declare-fun z_3_15_5 () Bool)
(declare-fun z_3_16_0 () Bool)
(declare-fun z_4_16_0 () Bool)
(declare-fun z_3_16_1 () Bool)
(declare-fun z_4_16_1 () Bool)
(declare-fun z_3_16_2 () Bool)
(declare-fun z_4_16_2 () Bool)
(declare-fun z_3_16_3 () Bool)
(declare-fun z_4_16_3 () Bool)
(declare-fun z_3_16_4 () Bool)
(declare-fun z_4_16_4 () Bool)
(declare-fun z_3_16_5 () Bool)
(declare-fun z_4_16_5 () Bool)
(declare-fun z_4_16_6 () Bool)
(declare-fun z_3_16_6 () Bool)
(declare-fun z_3_17_0 () Bool)
(declare-fun z_4_17_0 () Bool)
(declare-fun z_3_17_1 () Bool)
(declare-fun z_4_17_1 () Bool)
(declare-fun z_3_17_2 () Bool)
(declare-fun z_4_17_2 () Bool)
(declare-fun z_4_17_3 () Bool)
(declare-fun z_3_17_3 () Bool)
(declare-fun z_3_18_0 () Bool)
(declare-fun z_4_18_0 () Bool)
(declare-fun z_3_18_1 () Bool)
(declare-fun z_4_18_1 () Bool)
(declare-fun z_3_18_2 () Bool)
(declare-fun z_4_18_2 () Bool)
(declare-fun z_3_18_3 () Bool)
(declare-fun z_4_18_3 () Bool)
(declare-fun z_3_18_4 () Bool)
(declare-fun z_4_18_4 () Bool)
(declare-fun z_4_18_5 () Bool)
(declare-fun z_3_18_5 () Bool)
(declare-fun z_3_19_0 () Bool)
(declare-fun z_4_19_0 () Bool)
(declare-fun z_3_19_1 () Bool)
(declare-fun z_4_19_1 () Bool)
(declare-fun z_3_19_2 () Bool)
(declare-fun z_4_19_2 () Bool)
(declare-fun z_3_19_3 () Bool)
(declare-fun z_4_19_3 () Bool)
(declare-fun z_3_19_4 () Bool)
(declare-fun z_4_19_4 () Bool)
(declare-fun z_3_19_5 () Bool)
(declare-fun z_4_19_5 () Bool)
(declare-fun z_4_19_6 () Bool)
(declare-fun z_3_19_6 () Bool)
(declare-fun z_3_4_2 () Bool)
(declare-fun z_3_5_0 () Bool)
(declare-fun z_3_7_3 () Bool)
(assert
 (= z_0_0_0 (=> z_1_0_0 z_2_0_0)))
(assert
 (= z_0_0_1 (=> z_1_0_1 z_2_0_1)))
(assert
 (= z_0_0_2 (=> z_1_0_2 z_2_0_2)))
(assert
 (= z_0_0_3 (=> z_1_0_3 z_2_0_3)))
(assert
 (= z_0_0_4 (=> z_1_0_4 z_2_0_4)))
(assert
 (= z_0_0_5 (=> z_1_0_5 z_2_0_5)))
(assert
 (= z_0_0_6 (=> z_1_0_6 z_2_0_6)))
(assert
 (= z_0_1_0 (=> z_1_1_0 z_2_1_0)))
(assert
 (= z_0_1_1 (=> z_1_1_1 z_2_1_1)))
(assert
 (= z_0_1_2 (=> z_1_1_2 z_2_1_2)))
(assert
 (= z_0_1_3 (=> z_1_1_3 z_2_1_3)))
(assert
 (= z_0_1_4 (=> z_1_1_4 z_2_1_4)))
(assert
 (= z_0_1_5 (=> z_1_1_5 z_2_1_5)))
(assert
 (= z_0_2_0 (=> z_1_2_0 z_2_2_0)))
(assert
 (= z_0_2_1 (=> z_1_2_1 z_2_2_1)))
(assert
 (= z_0_2_2 (=> z_1_2_2 z_2_2_2)))
(assert
 (= z_0_2_3 (=> z_1_2_3 z_2_2_3)))
(assert
 (= z_0_2_4 (=> z_1_2_4 z_2_2_4)))
(assert
 (= z_0_2_5 (=> z_1_2_5 z_2_2_5)))
(assert
 (= z_0_3_0 (=> z_1_3_0 z_2_3_0)))
(assert
 (= z_0_3_1 (=> z_1_3_1 z_2_3_1)))
(assert
 (= z_0_3_2 (=> z_1_3_2 z_2_3_2)))
(assert
 (= z_0_3_3 (=> z_1_3_3 z_2_3_3)))
(assert
 (= z_0_4_0 (=> z_1_4_0 z_2_4_0)))
(assert
 (= z_0_4_1 (=> z_1_4_1 z_2_4_1)))
(assert
 (= z_0_4_2 (=> z_1_4_2 z_2_4_2)))
(assert
 (= z_0_5_0 (=> z_1_5_0 z_2_5_0)))
(assert
 (= z_0_6_0 (=> z_1_6_0 z_2_6_0)))
(assert
 (= z_0_6_1 (=> z_1_6_1 z_2_6_1)))
(assert
 (= z_0_6_2 (=> z_1_6_2 z_2_6_2)))
(assert
 (= z_0_6_3 (=> z_1_6_3 z_2_6_3)))
(assert
 (= z_0_6_4 (=> z_1_6_4 z_2_6_4)))
(assert
 (= z_0_7_0 (=> z_1_7_0 z_2_7_0)))
(assert
 (= z_0_7_1 (=> z_1_7_1 z_2_7_1)))
(assert
 (= z_0_7_2 (=> z_1_7_2 z_2_7_2)))
(assert
 (= z_0_7_3 (=> z_1_7_3 z_2_7_3)))
(assert
 (= z_0_8_0 (=> z_1_8_0 z_2_8_0)))
(assert
 (= z_0_8_1 (=> z_1_8_1 z_2_8_1)))
(assert
 (= z_0_8_2 (=> z_1_8_2 z_2_8_2)))
(assert
 (= z_0_8_3 (=> z_1_8_3 z_2_8_3)))
(assert
 (= z_0_8_4 (=> z_1_8_4 z_2_8_4)))
(assert
 (= z_0_8_5 (=> z_1_8_5 z_2_8_5)))
(assert
 (= z_0_9_0 (=> z_1_9_0 z_2_9_0)))
(assert
 (= z_0_9_1 (=> z_1_9_1 z_2_9_1)))
(assert
 (= z_0_9_2 (=> z_1_9_2 z_2_9_2)))
(assert
 (= z_0_9_3 (=> z_1_9_3 z_2_9_3)))
(assert
 (= z_0_9_4 (=> z_1_9_4 z_2_9_4)))
(assert
 (= z_0_10_0 (=> z_1_10_0 z_2_10_0)))
(assert
 (= z_0_10_1 (=> z_1_10_1 z_2_10_1)))
(assert
 (= z_0_10_2 (=> z_1_10_2 z_2_10_2)))
(assert
 (= z_0_10_3 (=> z_1_10_3 z_2_10_3)))
(assert
 (= z_0_10_4 (=> z_1_10_4 z_2_10_4)))
(assert
 (= z_0_10_5 (=> z_1_10_5 z_2_10_5)))
(assert
 (= z_0_11_0 (=> z_1_11_0 z_2_11_0)))
(assert
 (= z_0_11_1 (=> z_1_11_1 z_2_11_1)))
(assert
 (= z_0_11_2 (=> z_1_11_2 z_2_11_2)))
(assert
 (= z_0_11_3 (=> z_1_11_3 z_2_11_3)))
(assert
 (= z_0_11_4 (=> z_1_11_4 z_2_11_4)))
(assert
 (= z_0_11_5 (=> z_1_11_5 z_2_11_5)))
(assert
 (= z_0_12_0 (=> z_1_12_0 z_2_12_0)))
(assert
 (= z_0_12_1 (=> z_1_12_1 z_2_12_1)))
(assert
 (= z_0_12_2 (=> z_1_12_2 z_2_12_2)))
(assert
 (= z_0_12_3 (=> z_1_12_3 z_2_12_3)))
(assert
 (= z_0_12_4 (=> z_1_12_4 z_2_12_4)))
(assert
 (= z_0_12_5 (=> z_1_12_5 z_2_12_5)))
(assert
 (= z_0_12_6 (=> z_1_12_6 z_2_12_6)))
(assert
 (= z_0_13_0 (=> z_1_13_0 z_2_13_0)))
(assert
 (= z_0_13_1 (=> z_1_13_1 z_2_13_1)))
(assert
 (= z_0_13_2 (=> z_1_13_2 z_2_13_2)))
(assert
 (= z_0_13_3 (=> z_1_13_3 z_2_13_3)))
(assert
 (= z_0_13_4 (=> z_1_13_4 z_2_13_4)))
(assert
 (= z_0_13_5 (=> z_1_13_5 z_2_13_5)))
(assert
 (= z_0_13_6 (=> z_1_13_6 z_2_13_6)))
(assert
 (= z_0_14_0 (=> z_1_14_0 z_2_14_0)))
(assert
 (= z_0_14_1 (=> z_1_14_1 z_2_14_1)))
(assert
 (= z_0_14_2 (=> z_1_14_2 z_2_14_2)))
(assert
 (= z_0_14_3 (=> z_1_14_3 z_2_14_3)))
(assert
 (= z_0_15_0 (=> z_1_15_0 z_2_15_0)))
(assert
 (= z_0_15_1 (=> z_1_15_1 z_2_15_1)))
(assert
 (= z_0_15_2 (=> z_1_15_2 z_2_15_2)))
(assert
 (= z_0_15_3 (=> z_1_15_3 z_2_15_3)))
(assert
 (= z_0_15_4 (=> z_1_15_4 z_2_15_4)))
(assert
 (= z_0_15_5 (=> z_1_15_5 z_2_15_5)))
(assert
 (= z_0_16_0 (=> z_1_16_0 z_2_16_0)))
(assert
 (= z_0_16_1 (=> z_1_16_1 z_2_16_1)))
(assert
 (= z_0_16_2 (=> z_1_16_2 z_2_16_2)))
(assert
 (= z_0_16_3 (=> z_1_16_3 z_2_16_3)))
(assert
 (= z_0_16_4 (=> z_1_16_4 z_2_16_4)))
(assert
 (= z_0_16_5 (=> z_1_16_5 z_2_16_5)))
(assert
 (= z_0_16_6 (=> z_1_16_6 z_2_16_6)))
(assert
 (= z_0_17_0 (=> z_1_17_0 z_2_17_0)))
(assert
 (= z_0_17_1 (=> z_1_17_1 z_2_17_1)))
(assert
 (= z_0_17_2 (=> z_1_17_2 z_2_17_2)))
(assert
 (= z_0_17_3 (=> z_1_17_3 z_2_17_3)))
(assert
 (= z_0_18_0 (=> z_1_18_0 z_2_18_0)))
(assert
 (= z_0_18_1 (=> z_1_18_1 z_2_18_1)))
(assert
 (= z_0_18_2 (=> z_1_18_2 z_2_18_2)))
(assert
 (= z_0_18_3 (=> z_1_18_3 z_2_18_3)))
(assert
 (= z_0_18_4 (=> z_1_18_4 z_2_18_4)))
(assert
 (= z_0_18_5 (=> z_1_18_5 z_2_18_5)))
(assert
 (= z_0_19_0 (=> z_1_19_0 z_2_19_0)))
(assert
 (= z_0_19_1 (=> z_1_19_1 z_2_19_1)))
(assert
 (= z_0_19_2 (=> z_1_19_2 z_2_19_2)))
(assert
 (= z_0_19_3 (=> z_1_19_3 z_2_19_3)))
(assert
 (= z_0_19_4 (=> z_1_19_4 z_2_19_4)))
(assert
 (= z_0_19_5 (=> z_1_19_5 z_2_19_5)))
(assert
 (= z_0_19_6 (=> z_1_19_6 z_2_19_6)))
(assert
 (= z_2_0_0 (or z_4_0_0 (and z_3_0_0 z_2_0_1))))
(assert
 (= z_2_0_1 (or z_4_0_1 (and z_3_0_1 z_2_0_2))))
(assert
 (= z_2_0_2 (or z_4_0_2 (and z_3_0_2 z_2_0_3))))
(assert
 (= z_2_0_3 (or z_4_0_3 (and z_3_0_3 z_2_0_4))))
(assert
 (= z_2_0_4 (or z_4_0_4 (and z_3_0_4 z_2_0_5))))
(assert
 (= z_2_0_5 (or z_4_0_5 (and z_3_0_5 z_2_0_6))))
(assert
 (let (($x911 (and z_4_0_5 z_3_0_4 z_3_0_6)))
 (let (($x910 (and z_4_0_4 z_3_0_6)))
 (= z_2_0_6 (or $x910 $x911 (and z_4_0_6))))))
(assert
 (= z_2_1_0 (or z_4_1_0 (and z_3_1_0 z_2_1_1))))
(assert
 (= z_2_1_1 (or z_4_1_1 (and z_3_1_1 z_2_1_2))))
(assert
 (= z_2_1_2 (or z_4_1_2 (and z_3_1_2 z_2_1_3))))
(assert
 (= z_2_1_3 (or z_4_1_3 (and z_3_1_3 z_2_1_4))))
(assert
 (= z_2_1_4 (or z_4_1_4 (and z_3_1_4 z_2_1_5))))
(assert
 (let (($x946 (and z_4_1_4 z_3_1_2 z_3_1_3 z_3_1_5)))
 (let (($x945 (and z_4_1_3 z_3_1_2 z_3_1_5)))
 (let (($x944 (and z_4_1_2 z_3_1_5)))
 (= z_2_1_5 (or $x944 $x945 $x946 (and z_4_1_5)))))))
(assert
 (= z_2_2_0 (or z_4_2_0 (and z_3_2_0 z_2_2_1))))
(assert
 (= z_2_2_1 (or z_4_2_1 (and z_3_2_1 z_2_2_2))))
(assert
 (= z_2_2_2 (or z_4_2_2 (and z_3_2_2 z_2_2_3))))
(assert
 (= z_2_2_3 (or z_4_2_3 (and z_3_2_3 z_2_2_4))))
(assert
 (= z_2_2_4 (or z_4_2_4 (and z_3_2_4 z_2_2_5))))
(assert
 (let (($x981 (and z_4_2_4 z_3_2_2 z_3_2_3 z_3_2_5)))
 (let (($x980 (and z_4_2_3 z_3_2_2 z_3_2_5)))
 (let (($x979 (and z_4_2_2 z_3_2_5)))
 (= z_2_2_5 (or $x979 $x980 $x981 (and z_4_2_5)))))))
(assert
 (= z_2_3_0 (or z_4_3_0 (and z_3_3_0 z_2_3_1))))
(assert
 (= z_2_3_1 (or z_4_3_1 (and z_3_3_1 z_2_3_2))))
(assert
 (= z_2_3_2 (or z_4_3_2 (and z_3_3_2 z_2_3_3))))
(assert
 (= z_2_3_3 (or (and z_4_3_2 z_3_3_3) (and z_4_3_3))))
(assert
 (= z_2_4_0 (or z_4_4_0 (and z_3_4_0 z_2_4_1))))
(assert
 (= z_2_4_1 (or z_4_4_1 (and z_3_4_1 z_2_4_2))))
(assert
 (= z_2_4_2 (or (and z_4_4_2))))
(assert
 (= z_2_5_0 (or (and z_4_5_0))))
(assert
 (= z_2_6_0 (or z_4_6_0 (and z_3_6_0 z_2_6_1))))
(assert
 (= z_2_6_1 (or z_4_6_1 (and z_3_6_1 z_2_6_2))))
(assert
 (= z_2_6_2 (or z_4_6_2 (and z_3_6_2 z_2_6_3))))
(assert
 (= z_2_6_3 (or z_4_6_3 (and z_3_6_3 z_2_6_4))))
(assert
 (let (($x1053 (and z_4_6_3 z_3_6_2 z_3_6_4)))
 (let (($x1052 (and z_4_6_2 z_3_6_4)))
 (= z_2_6_4 (or $x1052 $x1053 (and z_4_6_4))))))
(assert
 (= z_2_7_0 (or z_4_7_0 (and z_3_7_0 z_2_7_1))))
(assert
 (= z_2_7_1 (or z_4_7_1 (and z_3_7_1 z_2_7_2))))
(assert
 (= z_2_7_2 (or z_4_7_2 (and z_3_7_2 z_2_7_3))))
(assert
 (= z_2_7_3 (or (and z_4_7_3))))
(assert
 (= z_2_8_0 (or z_4_8_0 (and z_3_8_0 z_2_8_1))))
(assert
 (= z_2_8_1 (or z_4_8_1 (and z_3_8_1 z_2_8_2))))
(assert
 (= z_2_8_2 (or z_4_8_2 (and z_3_8_2 z_2_8_3))))
(assert
 (= z_2_8_3 (or z_4_8_3 (and z_3_8_3 z_2_8_4))))
(assert
 (= z_2_8_4 (or z_4_8_4 (and z_3_8_4 z_2_8_5))))
(assert
 (let (($x1108 (and z_4_8_4 z_3_8_2 z_3_8_3 z_3_8_5)))
 (let (($x1107 (and z_4_8_3 z_3_8_2 z_3_8_5)))
 (let (($x1106 (and z_4_8_2 z_3_8_5)))
 (= z_2_8_5 (or $x1106 $x1107 $x1108 (and z_4_8_5)))))))
(assert
 (= z_2_9_0 (or z_4_9_0 (and z_3_9_0 z_2_9_1))))
(assert
 (= z_2_9_1 (or z_4_9_1 (and z_3_9_1 z_2_9_2))))
(assert
 (= z_2_9_2 (or z_4_9_2 (and z_3_9_2 z_2_9_3))))
(assert
 (= z_2_9_3 (or z_4_9_3 (and z_3_9_3 z_2_9_4))))
(assert
 (let (($x1137 (and z_4_9_3 z_3_9_2 z_3_9_4)))
 (let (($x1136 (and z_4_9_2 z_3_9_4)))
 (= z_2_9_4 (or $x1136 $x1137 (and z_4_9_4))))))
(assert
 (= z_2_10_0 (or z_4_10_0 (and z_3_10_0 z_2_10_1))))
(assert
 (= z_2_10_1 (or z_4_10_1 (and z_3_10_1 z_2_10_2))))
(assert
 (= z_2_10_2 (or z_4_10_2 (and z_3_10_2 z_2_10_3))))
(assert
 (= z_2_10_3 (or z_4_10_3 (and z_3_10_3 z_2_10_4))))
(assert
 (= z_2_10_4 (or z_4_10_4 (and z_3_10_4 z_2_10_5))))
(assert
 (let (($x1171 (and z_4_10_4 z_3_10_3 z_3_10_5)))
 (let (($x1170 (and z_4_10_3 z_3_10_5)))
 (= z_2_10_5 (or $x1170 $x1171 (and z_4_10_5))))))
(assert
 (= z_2_11_0 (or z_4_11_0 (and z_3_11_0 z_2_11_1))))
(assert
 (= z_2_11_1 (or z_4_11_1 (and z_3_11_1 z_2_11_2))))
(assert
 (= z_2_11_2 (or z_4_11_2 (and z_3_11_2 z_2_11_3))))
(assert
 (= z_2_11_3 (or z_4_11_3 (and z_3_11_3 z_2_11_4))))
(assert
 (= z_2_11_4 (or z_4_11_4 (and z_3_11_4 z_2_11_5))))
(assert
 (let (($x1206 (and z_4_11_4 z_3_11_2 z_3_11_3 z_3_11_5)))
 (let (($x1205 (and z_4_11_3 z_3_11_2 z_3_11_5)))
 (let (($x1204 (and z_4_11_2 z_3_11_5)))
 (= z_2_11_5 (or $x1204 $x1205 $x1206 (and z_4_11_5)))))))
(assert
 (= z_2_12_0 (or z_4_12_0 (and z_3_12_0 z_2_12_1))))
(assert
 (= z_2_12_1 (or z_4_12_1 (and z_3_12_1 z_2_12_2))))
(assert
 (= z_2_12_2 (or z_4_12_2 (and z_3_12_2 z_2_12_3))))
(assert
 (= z_2_12_3 (or z_4_12_3 (and z_3_12_3 z_2_12_4))))
(assert
 (= z_2_12_4 (or z_4_12_4 (and z_3_12_4 z_2_12_5))))
(assert
 (= z_2_12_5 (or z_4_12_5 (and z_3_12_5 z_2_12_6))))
(assert
 (let (($x1245 (and z_4_12_5 z_3_12_4 z_3_12_6)))
 (let (($x1244 (and z_4_12_4 z_3_12_6)))
 (= z_2_12_6 (or $x1244 $x1245 (and z_4_12_6))))))
(assert
 (= z_2_13_0 (or z_4_13_0 (and z_3_13_0 z_2_13_1))))
(assert
 (= z_2_13_1 (or z_4_13_1 (and z_3_13_1 z_2_13_2))))
(assert
 (= z_2_13_2 (or z_4_13_2 (and z_3_13_2 z_2_13_3))))
(assert
 (= z_2_13_3 (or z_4_13_3 (and z_3_13_3 z_2_13_4))))
(assert
 (= z_2_13_4 (or z_4_13_4 (and z_3_13_4 z_2_13_5))))
(assert
 (= z_2_13_5 (or z_4_13_5 (and z_3_13_5 z_2_13_6))))
(assert
 (let (($x1285 (and z_4_13_5 z_3_13_3 z_3_13_4 z_3_13_6)))
 (let (($x1284 (and z_4_13_4 z_3_13_3 z_3_13_6)))
 (let (($x1283 (and z_4_13_3 z_3_13_6)))
 (= z_2_13_6 (or $x1283 $x1284 $x1285 (and z_4_13_6)))))))
(assert
 (= z_2_14_0 (or z_4_14_0 (and z_3_14_0 z_2_14_1))))
(assert
 (= z_2_14_1 (or z_4_14_1 (and z_3_14_1 z_2_14_2))))
(assert
 (= z_2_14_2 (or z_4_14_2 (and z_3_14_2 z_2_14_3))))
(assert
 (let (($x1310 (and z_4_14_2 z_3_14_0 z_3_14_1 z_3_14_3)))
 (let (($x1309 (and z_4_14_1 z_3_14_0 z_3_14_3)))
 (let (($x1308 (and z_4_14_0 z_3_14_3)))
 (= z_2_14_3 (or $x1308 $x1309 $x1310 (and z_4_14_3)))))))
(assert
 (= z_2_15_0 (or z_4_15_0 (and z_3_15_0 z_2_15_1))))
(assert
 (= z_2_15_1 (or z_4_15_1 (and z_3_15_1 z_2_15_2))))
(assert
 (= z_2_15_2 (or z_4_15_2 (and z_3_15_2 z_2_15_3))))
(assert
 (= z_2_15_3 (or z_4_15_3 (and z_3_15_3 z_2_15_4))))
(assert
 (= z_2_15_4 (or z_4_15_4 (and z_3_15_4 z_2_15_5))))
(assert
 (let (($x1344 (and z_4_15_4 z_3_15_3 z_3_15_5)))
 (let (($x1343 (and z_4_15_3 z_3_15_5)))
 (= z_2_15_5 (or $x1343 $x1344 (and z_4_15_5))))))
(assert
 (= z_2_16_0 (or z_4_16_0 (and z_3_16_0 z_2_16_1))))
(assert
 (= z_2_16_1 (or z_4_16_1 (and z_3_16_1 z_2_16_2))))
(assert
 (= z_2_16_2 (or z_4_16_2 (and z_3_16_2 z_2_16_3))))
(assert
 (= z_2_16_3 (or z_4_16_3 (and z_3_16_3 z_2_16_4))))
(assert
 (= z_2_16_4 (or z_4_16_4 (and z_3_16_4 z_2_16_5))))
(assert
 (= z_2_16_5 (or z_4_16_5 (and z_3_16_5 z_2_16_6))))
(assert
 (let (($x1384 (and z_4_16_5 z_3_16_3 z_3_16_4 z_3_16_6)))
 (let (($x1383 (and z_4_16_4 z_3_16_3 z_3_16_6)))
 (let (($x1382 (and z_4_16_3 z_3_16_6)))
 (= z_2_16_6 (or $x1382 $x1383 $x1384 (and z_4_16_6)))))))
(assert
 (= z_2_17_0 (or z_4_17_0 (and z_3_17_0 z_2_17_1))))
(assert
 (= z_2_17_1 (or z_4_17_1 (and z_3_17_1 z_2_17_2))))
(assert
 (= z_2_17_2 (or z_4_17_2 (and z_3_17_2 z_2_17_3))))
(assert
 (= z_2_17_3 (or (and z_4_17_2 z_3_17_3) (and z_4_17_3))))
(assert
 (= z_2_18_0 (or z_4_18_0 (and z_3_18_0 z_2_18_1))))
(assert
 (= z_2_18_1 (or z_4_18_1 (and z_3_18_1 z_2_18_2))))
(assert
 (= z_2_18_2 (or z_4_18_2 (and z_3_18_2 z_2_18_3))))
(assert
 (= z_2_18_3 (or z_4_18_3 (and z_3_18_3 z_2_18_4))))
(assert
 (= z_2_18_4 (or z_4_18_4 (and z_3_18_4 z_2_18_5))))
(assert
 (let (($x1441 (and z_4_18_4 z_3_18_3 z_3_18_5)))
 (let (($x1440 (and z_4_18_3 z_3_18_5)))
 (= z_2_18_5 (or $x1440 $x1441 (and z_4_18_5))))))
(assert
 (= z_2_19_0 (or z_4_19_0 (and z_3_19_0 z_2_19_1))))
(assert
 (= z_2_19_1 (or z_4_19_1 (and z_3_19_1 z_2_19_2))))
(assert
 (= z_2_19_2 (or z_4_19_2 (and z_3_19_2 z_2_19_3))))
(assert
 (= z_2_19_3 (or z_4_19_3 (and z_3_19_3 z_2_19_4))))
(assert
 (= z_2_19_4 (or z_4_19_4 (and z_3_19_4 z_2_19_5))))
(assert
 (= z_2_19_5 (or z_4_19_5 (and z_3_19_5 z_2_19_6))))
(assert
 (let (($x1480 (and z_4_19_5 z_3_19_4 z_3_19_6)))
 (let (($x1479 (and z_4_19_4 z_3_19_6)))
 (= z_2_19_6 (or $x1479 $x1480 (and z_4_19_6))))))
(assert
 z_3_0_0)
(assert
 (not z_3_0_1))
(assert
 (not z_3_0_2))
(assert
 z_3_0_3)
(assert
 z_3_0_4)
(assert
 (not z_3_0_5))
(assert
 (not z_3_0_6))
(assert
 z_3_1_0)
(assert
 (not z_3_1_1))
(assert
 (not z_3_1_2))
(assert
 (not z_3_1_3))
(assert
 z_3_1_4)
(assert
 z_3_1_5)
(assert
 z_3_2_0)
(assert
 (not z_3_2_1))
(assert
 (not z_3_2_2))
(assert
 z_3_2_3)
(assert
 z_3_2_4)
(assert
 z_3_2_5)
(assert
 z_3_3_0)
(assert
 (not z_3_3_1))
(assert
 (not z_3_3_2))
(assert
 z_3_3_3)
(assert
 z_3_4_0)
(assert
 (not z_3_4_1))
(assert
 z_3_4_2)
(assert
 (not z_3_5_0))
(assert
 (not z_3_6_0))
(assert
 z_3_6_1)
(assert
 z_3_6_2)
(assert
 (not z_3_6_3))
(assert
 (not z_3_6_4))
(assert
 (not z_3_7_0))
(assert
 (not z_3_7_1))
(assert
 z_3_7_2)
(assert
 (not z_3_7_3))
(assert
 (not z_3_8_0))
(assert
 (not z_3_8_1))
(assert
 (not z_3_8_2))
(assert
 z_3_8_3)
(assert
 z_3_8_4)
(assert
 z_3_8_5)
(assert
 z_3_9_0)
(assert
 z_3_9_1)
(assert
 z_3_9_2)
(assert
 (not z_3_9_3))
(assert
 (not z_3_9_4))
(assert
 z_3_10_0)
(assert
 (not z_3_10_1))
(assert
 z_3_10_2)
(assert
 z_3_10_3)
(assert
 (not z_3_10_4))
(assert
 (not z_3_10_5))
(assert
 z_3_11_0)
(assert
 (not z_3_11_1))
(assert
 z_3_11_2)
(assert
 (not z_3_11_3))
(assert
 z_3_11_4)
(assert
 z_3_11_5)
(assert
 (not z_3_12_0))
(assert
 (not z_3_12_1))
(assert
 (not z_3_12_2))
(assert
 z_3_12_3)
(assert
 (not z_3_12_4))
(assert
 z_3_12_5)
(assert
 z_3_12_6)
(assert
 z_3_13_0)
(assert
 (not z_3_13_1))
(assert
 (not z_3_13_2))
(assert
 (not z_3_13_3))
(assert
 z_3_13_4)
(assert
 (not z_3_13_5))
(assert
 z_3_13_6)
(assert
 (not z_3_14_0))
(assert
 (not z_3_14_1))
(assert
 z_3_14_2)
(assert
 z_3_14_3)
(assert
 z_3_15_0)
(assert
 (not z_3_15_1))
(assert
 (not z_3_15_2))
(assert
 z_3_15_3)
(assert
 (not z_3_15_4))
(assert
 z_3_15_5)
(assert
 (not z_3_16_0))
(assert
 z_3_16_1)
(assert
 (not z_3_16_2))
(assert
 z_3_16_3)
(assert
 z_3_16_4)
(assert
 (not z_3_16_5))
(assert
 (not z_3_16_6))
(assert
 (not z_3_17_0))
(assert
 (not z_3_17_1))
(assert
 (not z_3_17_2))
(assert
 z_3_17_3)
(assert
 z_3_18_0)
(assert
 (not z_3_18_1))
(assert
 z_3_18_2)
(assert
 (not z_3_18_3))
(assert
 z_3_18_4)
(assert
 (not z_3_18_5))
(assert
 z_3_19_0)
(assert
 z_3_19_1)
(assert
 (not z_3_19_2))
(assert
 z_3_19_3)
(assert
 (not z_3_19_4))
(assert
 z_3_19_5)
(assert
 (not z_3_19_6))
(assert
 (not z_4_0_0))
(assert
 (not z_4_0_1))
(assert
 (not z_4_0_2))
(assert
 (not z_4_0_3))
(assert
 (not z_4_0_4))
(assert
 (not z_4_0_5))
(assert
 (not z_4_0_6))
(assert
 (not z_4_1_0))
(assert
 (not z_4_1_1))
(assert
 (not z_4_1_2))
(assert
 (not z_4_1_3))
(assert
 (not z_4_1_4))
(assert
 (not z_4_1_5))
(assert
 (not z_4_2_0))
(assert
 (not z_4_2_1))
(assert
 (not z_4_2_2))
(assert
 (not z_4_2_3))
(assert
 (not z_4_2_4))
(assert
 (not z_4_2_5))
(assert
 (not z_4_3_0))
(assert
 (not z_4_3_1))
(assert
 (not z_4_3_2))
(assert
 (not z_4_3_3))
(assert
 (not z_4_4_0))
(assert
 (not z_4_4_1))
(assert
 (not z_4_4_2))
(assert
 (not z_4_5_0))
(assert
 (not z_4_6_0))
(assert
 (not z_4_6_1))
(assert
 (not z_4_6_2))
(assert
 (not z_4_6_3))
(assert
 (not z_4_6_4))
(assert
 (not z_4_7_0))
(assert
 (not z_4_7_1))
(assert
 (not z_4_7_2))
(assert
 (not z_4_7_3))
(assert
 (not z_4_8_0))
(assert
 (not z_4_8_1))
(assert
 (not z_4_8_2))
(assert
 (not z_4_8_3))
(assert
 (not z_4_8_4))
(assert
 (not z_4_8_5))
(assert
 (not z_4_9_0))
(assert
 (not z_4_9_1))
(assert
 (not z_4_9_2))
(assert
 (not z_4_9_3))
(assert
 (not z_4_9_4))
(assert
 (not z_4_10_0))
(assert
 (not z_4_10_1))
(assert
 z_4_10_2)
(assert
 z_4_10_3)
(assert
 (not z_4_10_4))
(assert
 z_4_10_5)
(assert
 (not z_4_11_0))
(assert
 (not z_4_11_1))
(assert
 z_4_11_2)
(assert
 (not z_4_11_3))
(assert
 (not z_4_11_4))
(assert
 z_4_11_5)
(assert
 (not z_4_12_0))
(assert
 (not z_4_12_1))
(assert
 (not z_4_12_2))
(assert
 z_4_12_3)
(assert
 z_4_12_4)
(assert
 (not z_4_12_5))
(assert
 (not z_4_12_6))
(assert
 (not z_4_13_0))
(assert
 (not z_4_13_1))
(assert
 z_4_13_2)
(assert
 (not z_4_13_3))
(assert
 z_4_13_4)
(assert
 z_4_13_5)
(assert
 (not z_4_13_6))
(assert
 (not z_4_14_0))
(assert
 z_4_14_1)
(assert
 (not z_4_14_2))
(assert
 (not z_4_14_3))
(assert
 (not z_4_15_0))
(assert
 (not z_4_15_1))
(assert
 z_4_15_2)
(assert
 z_4_15_3)
(assert
 (not z_4_15_4))
(assert
 (not z_4_15_5))
(assert
 (not z_4_16_0))
(assert
 z_4_16_1)
(assert
 z_4_16_2)
(assert
 (not z_4_16_3))
(assert
 (not z_4_16_4))
(assert
 (not z_4_16_5))
(assert
 (not z_4_16_6))
(assert
 (not z_4_17_0))
(assert
 z_4_17_1)
(assert
 z_4_17_2)
(assert
 z_4_17_3)
(assert
 (not z_4_18_0))
(assert
 (not z_4_18_1))
(assert
 z_4_18_2)
(assert
 (not z_4_18_3))
(assert
 (not z_4_18_4))
(assert
 (not z_4_18_5))
(assert
 (not z_4_19_0))
(assert
 (not z_4_19_1))
(assert
 (not z_4_19_2))
(assert
 z_4_19_3)
(assert
 z_4_19_4)
(assert
 z_4_19_5)
(assert
 (not z_4_19_6))
(assert
 (= z_0_0_0 true))
(assert
 (= z_0_1_0 true))
(assert
 (= z_0_2_0 true))
(assert
 (= z_0_3_0 true))
(assert
 (= z_0_4_0 true))
(assert
 (= z_0_5_0 true))
(assert
 (= z_0_6_0 true))
(assert
 (= z_0_7_0 true))
(assert
 (= z_0_8_0 true))
(assert
 (= z_0_9_0 true))
(assert
 (= z_0_10_0 false))
(assert
 (= z_0_11_0 false))
(assert
 (= z_0_12_0 false))
(assert
 (= z_0_13_0 false))
(assert
 (= z_0_14_0 false))
(assert
 (= z_0_15_0 false))
(assert
 (= z_0_16_0 false))
(assert
 (= z_0_17_0 false))
(assert
 (= z_0_18_0 false))
(assert
 (= z_0_19_0 false))
(assert
 (let (($x1660 (= z_1_0_2 z_1_6_0)))
 (and $x1660)))
(assert
 (let (($x1662 (= z_1_0_3 z_1_6_1)))
 (and $x1662)))
(assert
 (let (($x1664 (= z_1_0_4 z_1_6_2)))
 (and $x1664)))
(assert
 (let (($x1666 (= z_1_0_5 z_1_6_3)))
 (and $x1666)))
(assert
 (let (($x1668 (= z_1_0_6 z_1_6_4)))
 (and $x1668)))
(assert
 (let (($x1670 (= z_1_0_3 z_1_9_1)))
 (and $x1670)))
(assert
 (let (($x1672 (= z_1_0_4 z_1_9_2)))
 (and $x1672)))
(assert
 (let (($x1674 (= z_1_0_5 z_1_9_3)))
 (and $x1674)))
(assert
 (let (($x1676 (= z_1_0_6 z_1_9_4)))
 (and $x1676)))
(assert
 (let (($x1678 (= z_1_0_4 z_1_18_4)))
 (and $x1678)))
(assert
 (let (($x1680 (= z_1_0_5 z_1_18_5)))
 (and $x1680)))
(assert
 (let (($x1682 (= z_1_0_6 z_1_18_3)))
 (and $x1682)))
(assert
 (let (($x1684 (= z_1_1_2 z_1_16_5)))
 (and $x1684)))
(assert
 (let (($x1686 (= z_1_1_3 z_1_16_6)))
 (and $x1686)))
(assert
 (let (($x1688 (= z_1_1_4 z_1_16_3)))
 (and $x1688)))
(assert
 (let (($x1690 (= z_1_1_5 z_1_16_4)))
 (and $x1690)))
(assert
 (let (($x1692 (= z_1_2_1 z_1_8_1)))
 (and $x1692)))
(assert
 (let (($x1694 (= z_1_2_2 z_1_8_2)))
 (and $x1694)))
(assert
 (let (($x1696 (= z_1_2_3 z_1_8_3)))
 (and $x1696)))
(assert
 (let (($x1698 (= z_1_2_4 z_1_8_4)))
 (and $x1698)))
(assert
 (let (($x1700 (= z_1_2_5 z_1_8_5)))
 (and $x1700)))
(assert
 (let (($x1702 (= z_1_5_0 z_1_7_3)))
 (and $x1702)))
(assert
 (let (($x1704 (= z_1_6_1 z_1_9_1)))
 (and $x1704)))
(assert
 (let (($x1706 (= z_1_6_2 z_1_9_2)))
 (and $x1706)))
(assert
 (let (($x1708 (= z_1_6_3 z_1_9_3)))
 (and $x1708)))
(assert
 (let (($x1710 (= z_1_6_4 z_1_9_4)))
 (and $x1710)))
(assert
 (let (($x1712 (= z_1_6_2 z_1_18_4)))
 (and $x1712)))
(assert
 (let (($x1714 (= z_1_6_3 z_1_18_5)))
 (and $x1714)))
(assert
 (let (($x1716 (= z_1_6_4 z_1_18_3)))
 (and $x1716)))
(assert
 (let (($x1718 (= z_1_9_2 z_1_18_4)))
 (and $x1718)))
(assert
 (let (($x1720 (= z_1_9_3 z_1_18_5)))
 (and $x1720)))
(assert
 (let (($x1722 (= z_1_9_4 z_1_18_3)))
 (and $x1722)))
(assert
 (let (($x1724 (= z_1_10_3 z_1_19_5)))
 (and $x1724)))
(assert
 (let (($x1726 (= z_1_10_4 z_1_19_6)))
 (and $x1726)))
(assert
 (let (($x1728 (= z_1_10_5 z_1_19_4)))
 (and $x1728)))
(check-sat)

